NAME : eil22.80.375.tour
COMMENT : Length = 375
COMMENT : Found by LKH [Keld Helsgaun] Tue Dec 11 00:02:25 2018
TYPE : TOUR
DIMENSION : 24
TOUR_SECTION
1
15
20
22
18
19
21
16
24
17
14
12
13
23
9
7
5
4
2
3
8
10
6
11
-1
EOF
